BAYES
256
2 2 2 2 2 2 2 2 2 2 2 2 2 2 2 2 2 2 2 2 2 2 2 2 2 2 2 2 2 2 2 2 2 2 2 2 2 2 2 2 2 2 2 2 2 2 2 2 2 2 2 2 2 2 2 2 2 2 2 2 2 2 2 2 2 2 2 2 2 2 2 2 2 2 2 2 2 2 2 2 2 2 2 2 2 2 2 2 2 2 2 2 2 2 2 2 2 2 2 2 2 2 2 2 2 2 2 2 2 2 2 2 2 2 2 2 2 2 2 2 2 2 2 2 2 2 2 2 2 2 2 2 2 2 2 2 2 2 2 2 2 2 2 2 2 2 2 2 2 2 2 2 2 2 2 2 2 2 2 2 2 2 2 2 2 2 2 2 2 2 2 2 2 2 2 2 2 2 2 2 2 2 2 2 2 2 2 2 2 2 2 2 2 2 2 2 2 2 2 2 2 2 2 2 2 2 2 2 2 2 2 2 2 2 2 2 2 2 2 2 2 2 2 2 2 2 2 2 2 2 2 2 2 2 2 2 2 2 2 2 2 2 2 2 2 2 2 2 2 2 2 2 2 2 2 2
256
3 1 16 0
3 2 17 1
3 3 18 2
3 4 19 3
3 5 20 4
3 6 21 5
3 7 22 6
3 8 23 7
3 9 24 8
3 10 25 9
3 11 26 10
3 12 27 11
3 13 28 12
3 14 29 13
3 15 30 14
2 16 15
3 17 32 16
3 18 33 17
3 19 34 18
3 20 35 19
3 21 36 20
3 22 37 21
3 23 38 22
3 24 39 23
3 25 40 24
3 26 41 25
3 27 42 26
3 28 43 27
3 29 44 28
3 30 45 29
3 31 46 30
2 32 31
3 33 48 32
3 34 49 33
3 35 50 34
3 36 51 35
3 37 52 36
3 38 53 37
3 39 54 38
3 40 55 39
3 41 56 40
3 42 57 41
3 43 58 42
3 44 59 43
3 45 60 44
3 46 61 45
3 47 62 46
2 48 47
3 49 64 48
3 50 65 49
3 51 66 50
3 52 67 51
3 53 68 52
3 54 69 53
3 55 70 54
3 56 71 55
3 57 72 56
3 58 73 57
3 59 74 58
3 60 75 59
3 61 76 60
3 62 77 61
3 63 78 62
2 64 63
3 65 80 64
3 66 81 65
3 67 82 66
3 68 83 67
3 69 84 68
3 70 85 69
3 71 86 70
3 72 87 71
3 73 88 72
3 74 89 73
3 75 90 74
3 76 91 75
3 77 92 76
3 78 93 77
3 79 94 78
2 80 79
3 81 96 80
3 82 97 81
3 83 98 82
3 84 99 83
3 85 100 84
3 86 101 85
3 87 102 86
3 88 103 87
3 89 104 88
3 90 105 89
3 91 106 90
3 92 107 91
3 93 108 92
3 94 109 93
3 95 110 94
2 96 95
3 97 112 96
3 98 113 97
3 99 114 98
3 100 115 99
3 101 116 100
3 102 117 101
3 103 118 102
3 104 119 103
3 105 120 104
3 106 121 105
3 107 122 106
3 108 123 107
3 109 124 108
3 110 125 109
3 111 126 110
2 112 111
3 113 128 112
3 114 129 113
3 115 130 114
3 116 131 115
3 117 132 116
3 118 133 117
3 119 134 118
3 120 135 119
3 121 136 120
3 122 137 121
3 123 138 122
3 124 139 123
3 125 140 124
3 126 141 125
3 127 142 126
2 128 127
3 129 144 128
3 130 145 129
3 131 146 130
3 132 147 131
3 133 148 132
3 134 149 133
3 135 150 134
3 136 151 135
3 137 152 136
3 138 153 137
3 139 154 138
3 140 155 139
3 141 156 140
3 142 157 141
3 143 158 142
2 144 143
3 145 160 144
3 146 161 145
3 147 162 146
3 148 163 147
3 149 164 148
3 150 165 149
3 151 166 150
3 152 167 151
3 153 168 152
3 154 169 153
3 155 170 154
3 156 171 155
3 157 172 156
3 158 173 157
3 159 174 158
2 160 159
3 161 176 160
3 162 177 161
3 163 178 162
3 164 179 163
3 165 180 164
3 166 181 165
3 167 182 166
3 168 183 167
3 169 184 168
3 170 185 169
3 171 186 170
3 172 187 171
3 173 188 172
3 174 189 173
3 175 190 174
2 176 175
3 177 192 176
3 178 193 177
3 179 194 178
3 180 195 179
3 181 196 180
3 182 197 181
3 183 198 182
3 184 199 183
3 185 200 184
3 186 201 185
3 187 202 186
3 188 203 187
3 189 204 188
3 190 205 189
3 191 206 190
2 192 191
3 193 208 192
3 194 209 193
3 195 210 194
3 196 211 195
3 197 212 196
3 198 213 197
3 199 214 198
3 200 215 199
3 201 216 200
3 202 217 201
3 203 218 202
3 204 219 203
3 205 220 204
3 206 221 205
3 207 222 206
2 208 207
3 209 224 208
3 210 225 209
3 211 226 210
3 212 227 211
3 213 228 212
3 214 229 213
3 215 230 214
3 216 231 215
3 217 232 216
3 218 233 217
3 219 234 218
3 220 235 219
3 221 236 220
3 222 237 221
3 223 238 222
2 224 223
3 225 240 224
3 226 241 225
3 227 242 226
3 228 243 227
3 229 244 228
3 230 245 229
3 231 246 230
3 232 247 231
3 233 248 232
3 234 249 233
3 235 250 234
3 236 251 235
3 237 252 236
3 238 253 237
3 239 254 238
2 240 239
2 256 240
2 257 241
2 258 242
2 259 243
2 260 244
2 261 245
2 262 246
2 263 247
2 264 248
2 265 249
2 266 250
2 267 251
2 268 252
2 269 253
2 270 254
1  255
8
0 1 1 0 0 1 0 1
8
1 0 0 1 0 1 0 1
8
1 0 1 0 1 0 0 1
8
0 1 0 1 0 1 1 0
8
1 0 1 0 0 1 0 1
8
1 0 0 1 0 1 0 1
8
0 1 0 1 1 0 0 1
8
1 0 0 1 0 1 1 0
8
0 1 0 1 0 1 0 1
8
0 1 0 1 1 0 1 0
8
0.7038282067460171 0.29617179325398285 0.531516579480506 0.4684834205194941 0.8608959409365652 0.1391040590634348 0.7887788409932451 0.21122115900675484
8
0.8391715594303929 0.16082844056960716 0.9106962655850296 0.08930373441497037 0.44146505904871747 0.5585349409512825 0.7259606325383468 0.27403936746165325
8
0 1 1 0 0 1 1 0
8
1 0 1 0 1 0 1 0
8
1 0 1 0 0 1 0 1
4
1 0 0 1
8
1 0 1 0 0 1 1 0
8
0 1 1 0 1 0 0 1
8
0.7566898201865243 0.24331017981347566 0.5962035343984045 0.4037964656015956 0.5298580986945598 0.4701419013054402 0.33886053274174144 0.6611394672582586
8
0 1 1 0 0 1 1 0
8
1 0 1 0 1 0 0 1
8
0 1 0 1 1 0 1 0
8
1 0 0 1 1 0 0 1
8
1 0 0 1 0 1 1 0
8
0 1 1 0 1 0 0 1
8
1 0 1 0 1 0 1 0
8
1 0 0 1 0 1 1 0
8
1 0 0 1 0 1 0 1
8
1 0 0 1 0 1 0 1
8
1 0 1 0 0 1 0 1
8
1 0 1 0 1 0 1 0
4
1 0 1 0
8
0 1 0 1 1 0 1 0
8
0 1 0 1 1 0 0 1
8
0 1 0 1 1 0 0 1
8
0 1 1 0 1 0 1 0
8
0 1 0 1 0 1 0 1
8
1 0 1 0 1 0 0 1
8
1 0 0 1 1 0 0 1
8
0 1 1 0 1 0 0 1
8
0.642919210666775 0.3570807893332249 0.1640135802093675 0.8359864197906325 0.5271035668448829 0.47289643315511715 0.957521578595657 0.04247842140434299
8
0.12890401036243768 0.8710959896375623 0.7301455464017805 0.26985445359821947 0.5809465682381905 0.4190534317618096 0.9153567419459206 0.08464325805407934
8
0.38832739600307487 0.6116726039969251 0.19217158302653034 0.8078284169734696 0.8053768970077586 0.19462310299224142 0.6741706773657224 0.32582932263427744
8
0 1 1 0 0 1 1 0
8
1 0 0 1 1 0 1 0
8
1 0 0 1 0 1 1 0
8
1 0 1 0 1 0 1 0
4
0.46752680204310854 0.5324731979568914 0.5164039741246939 0.48359602587530615
8
0.5669311839178754 0.43306881608212455 0.35274204956330607 0.647257950436694 0.8920095224766129 0.1079904775233871 0.7544567816948852 0.2455432183051148
8
0 1 0 1 1 0 0 1
8
0 1 1 0 1 0 1 0
8
1 0 1 0 0 1 1 0
8
1 0 1 0 0 1 1 0
8
1 0 1 0 0 1 0 1
8
0 1 0 1 1 0 0 1
8
0 1 1 0 0 1 0 1
8
0 1 0 1 1 0 0 1
8
1 0 1 0 1 0 1 0
8
1 0 0 1 0 1 0 1
8
1 0 0 1 0 1 0 1
8
1 0 0 1 0 1 1 0
8
1 0 1 0 1 0 1 0
8
0 1 1 0 1 0 1 0
4
0 1 1 0
8
1 0 0 1 0 1 0 1
8
0 1 1 0 1 0 1 0
8
0 1 1 0 1 0 0 1
8
1 0 0 1 1 0 1 0
8
0 1 1 0 0 1 0 1
8
1 0 0 1 0 1 0 1
8
1 0 1 0 1 0 0 1
8
1 0 0 1 0 1 1 0
8
1 0 0 1 0 1 0 1
8
0 1 0 1 1 0 0 1
8
1 0 1 0 1 0 0 1
8
0 1 1 0 0 1 1 0
8
1 0 1 0 1 0 0 1
8
1 0 1 0 0 1 0 1
8
0 1 0 1 1 0 1 0
4
0 1 0 1
8
0.1402202501332545 0.8597797498667455 0.3243155929671488 0.6756844070328513 0.5296994303085166 0.4703005696914833 0.29748190885377374 0.7025180911462262
8
1 0 1 0 0 1 0 1
8
1 0 1 0 0 1 1 0
8
0 1 0 1 0 1 1 0
8
0 1 1 0 0 1 1 0
8
0 1 0 1 0 1 0 1
8
0 1 1 0 0 1 1 0
8
1 0 0 1 0 1 0 1
8
1 0 0 1 0 1 0 1
8
1 0 1 0 1 0 0 1
8
0.8329961458301465 0.1670038541698535 0.6431561817940769 0.3568438182059232 0.6018264595077211 0.398173540492279 0.40736779793367955 0.5926322020663204
8
0 1 0 1 1 0 0 1
8
0 1 0 1 1 0 1 0
8
1 0 1 0 0 1 0 1
8
0 1 0 1 1 0 0 1
4
0 1 1 0
8
0 1 0 1 0 1 0 1
8
0 1 0 1 0 1 1 0
8
0 1 1 0 0 1 0 1
8
0 1 0 1 1 0 1 0
8
1 0 0 1 1 0 0 1
8
0 1 1 0 1 0 0 1
8
0.5396334418454708 0.4603665581545293 0.3363909840920644 0.6636090159079355 0.785813963552098 0.21418603644790207 0.6672733279293825 0.33272667207061746
8
0 1 1 0 1 0 1 0
8
1 0 1 0 0 1 1 0
8
0 1 1 0 0 1 1 0
8
0 1 0 1 1 0 1 0
8
1 0 0 1 0 1 0 1
8
1 0 1 0 0 1 0 1
8
1 0 0 1 1 0 0 1
8
0 1 0 1 1 0 1 0
4
0 1 1 0
8
1 0 0 1 1 0 1 0
8
0 1 1 0 0 1 1 0
8
1 0 1 0 1 0 1 0
8
1 0 0 1 1 0 1 0
8
0 1 1 0 0 1 0 1
8
1 0 0 1 1 0 0 1
8
0 1 1 0 0 1 0 1
8
1 0 1 0 0 1 1 0
8
0.48588810824548545 0.5141118917545145 0.6471173439700233 0.35288265602997665 0.7086605862266917 0.29133941377330835 0.14376836251151281 0.8562316374884872
8
1 0 1 0 0 1 0 1
8
1 0 0 1 1 0 1 0
8
1 0 0 1 1 0 0 1
8
1 0 0 1 0 1 1 0
8
1 0 1 0 1 0 0 1
8
0 1 0 1 1 0 1 0
4
1 0 0 1
8
1 0 1 0 1 0 0 1
8
1 0 0 1 1 0 0 1
8
1 0 1 0 1 0 1 0
8
0 1 0 1 0 1 0 1
8
0 1 1 0 0 1 1 0
8
0 1 0 1 0 1 0 1
8
1 0 1 0 0 1 0 1
8
0 1 0 1 1 0 1 0
8
1 0 1 0 0 1 0 1
8
0 1 1 0 0 1 1 0
8
1 0 0 1 0 1 1 0
8
1 0 1 0 0 1 0 1
8
0.40730890322590885 0.5926910967740912 0.735878773279558 0.26412122672044214 0.9215788895580508 0.07842111044194923 0.3138501950685754 0.6861498049314246
8
1 0 1 0 1 0 0 1
8
1 0 1 0 0 1 1 0
4
0 1 1 0
8
0 1 0 1 1 0 1 0
8
0 1 1 0 0 1 0 1
8
1 0 0 1 0 1 1 0
8
1 0 1 0 1 0 1 0
8
1 0 0 1 1 0 0 1
8
1 0 0 1 1 0 0 1
8
1 0 1 0 0 1 1 0
8
1 0 1 0 0 1 1 0
8
0 1 1 0 0 1 1 0
8
1 0 0 1 0 1 1 0
8
0 1 1 0 0 1 1 0
8
0 1 1 0 1 0 0 1
8
1 0 1 0 0 1 1 0
8
0 1 0 1 0 1 0 1
8
1 0 1 0 0 1 0 1
4
0.4619319240645457 0.5380680759354544 0.9839233668590184 0.016076633140981674
8
0 1 1 0 1 0 1 0
8
1 0 0 1 1 0 0 1
8
1 0 0 1 1 0 0 1
8
1 0 0 1 1 0 1 0
8
0 1 1 0 0 1 1 0
8
1 0 0 1 0 1 0 1
8
0 1 0 1 0 1 0 1
8
1 0 1 0 1 0 0 1
8
0 1 0 1 0 1 0 1
8
0.44488210361774816 0.5551178963822518 0.26234940254094585 0.7376505974590541 0.8445607646926037 0.15543923530739637 0.6583704341464743 0.3416295658535256
8
1 0 0 1 0 1 0 1
8
1 0 1 0 0 1 0 1
8
0 1 1 0 0 1 0 1
8
1 0 0 1 0 1 0 1
8
1 0 0 1 0 1 0 1
4
0 1 1 0
8
0 1 1 0 1 0 0 1
8
1 0 1 0 0 1 1 0
8
0 1 0 1 0 1 0 1
8
0.3874024020245897 0.6125975979754102 0.7382482254583251 0.2617517745416749 0.8710843298528572 0.12891567014714278 0.5257346071271314 0.47426539287286856
8
1 0 1 0 1 0 0 1
8
0 1 0 1 1 0 1 0
8
0 1 1 0 0 1 1 0
8
0.9137247945531317 0.08627520544686829 0.6155779207414268 0.3844220792585732 0.12228609649669912 0.8777139035033008 0.7240775387762358 0.2759224612237642
8
0 1 0 1 1 0 1 0
8
1 0 1 0 0 1 1 0
8
1 0 1 0 1 0 1 0
8
1 0 0 1 0 1 0 1
8
0 1 0 1 1 0 0 1
8
0 1 1 0 1 0 1 0
8
0 1 0 1 0 1 0 1
4
0 1 0 1
8
1 0 0 1 0 1 0 1
8
1 0 1 0 0 1 0 1
8
1 0 1 0 0 1 1 0
8
1 0 0 1 0 1 0 1
8
1 0 1 0 1 0 1 0
8
0 1 0 1 1 0 0 1
8
0.5993893535189939 0.4006106464810061 0.16976051915546855 0.8302394808445314 0.7473177834703896 0.2526822165296104 0.5961872788569235 0.40381272114307654
8
1 0 0 1 0 1 0 1
8
0 1 1 0 0 1 1 0
8
0 1 1 0 1 0 0 1
8
0.3223376548151822 0.6776623451848178 0.997928257299316 0.0020717427006840166 0.5926419109801798 0.40735808901982024 0.5114362961180011 0.48856370388199893
8
1 0 0 1 0 1 0 1
8
1 0 0 1 0 1 1 0
8
0 1 0 1 1 0 1 0
8
0.47882141336880607 0.5211785866311941 0.1713620112687423 0.8286379887312577 0.5340756921096629 0.46592430789033706 0.4846846399155992 0.5153153600844007
4
0 1 1 0
8
1 0 1 0 1 0 1 0
8
0 1 1 0 0 1 1 0
8
1 0 0 1 1 0 0 1
8
0 1 0 1 1 0 0 1
8
0.5536046097489395 0.4463953902510605 0.3455778312252709 0.654422168774729 0.6650167338086126 0.33498326619138746 0.5097035418856812 0.49029645811431877
8
0 1 0 1 0 1 1 0
8
0.23726698608942529 0.7627330139105747 0.19235567650302388 0.8076443234969761 0.5316554395624419 0.46834456043755823 0.8595923907290575 0.14040760927094253
8
0 1 0 1 0 1 1 0
8
1 0 0 1 0 1 1 0
8
0 1 0 1 0 1 1 0
8
0 1 0 1 0 1 0 1
8
0 1 0 1 1 0 1 0
8
0 1 1 0 1 0 1 0
8
1 0 0 1 1 0 1 0
8
1 0 0 1 0 1 1 0
4
1 0 0 1
8
1 0 0 1 0 1 1 0
8
1 0 1 0 0 1 1 0
8
1 0 0 1 0 1 1 0
8
1 0 0 1 1 0 0 1
8
0.3710885987802042 0.6289114012197957 0.3657629500838333 0.6342370499161667 0.8025227335588776 0.19747726644112237 0.13177017089000032 0.8682298291099996
8
1 0 1 0 0 1 1 0
8
1 0 1 0 1 0 1 0
8
0 1 1 0 1 0 1 0
8
1 0 0 1 0 1 1 0
8
1 0 0 1 1 0 1 0
8
1 0 1 0 0 1 1 0
8
1 0 0 1 0 1 0 1
8
0 1 0 1 0 1 0 1
8
1 0 0 1 1 0 1 0
8
0 1 1 0 1 0 1 0
4
0.4686030400059768 0.5313969599940231 0.41253627493652045 0.5874637250634795
4
0 1 1 0
4
1 0 1 0
4
1 0 1 0
4
0 1 1 0
4
1 0 0 1
4
1 0 1 0
4
0 1 1 0
4
0 1 0 1
4
0.7558188585513844 0.24418114144861572 0.27122608309819074 0.7287739169018093
4
1 0 1 0
4
1 0 0 1
4
0.7192595946167779 0.28074040538322204 0.9280583048830068 0.07194169511699318
4
1 0 1 0
4
1 0 0 1
4
1 0 0 1
2
0 1
